c 1 _r
c 2 _r_1
c 3 _r_1_3_4
c 4 _r_1_3_5
c 5 _r_2
c 6 _r_2_32_33
c 7 _r_2_32_34
c 8 _r_2_32_35
c 9 _r_2_32_36
c 10 _r_6
c 11 _r_6_14
c 12 _r_6_14_19_20
c 13 _r_6_14_19_21
c 14 _r_6_14_19_22
c 15 _r_6_14_19_23
c 16 _r_6_16
c 17 _r_6_16_24_25
c 18 _r_6_16_24_26
c 19 _r_6_16_24_27
c 20 _r_6_17
c 21 _r_6_18
c 22 _r_6_18_28_29
c 23 _r_6_18_28_30
c 24 _r_6_18_28_31
p cnf 24 35
1 0
-2 1 0
-1 2 0
-5 1 0
-1 5 0
-10 1 0
-1 10 0
-3 2 0
-4 2 0
-2 3 4 0
-6 5 0
-7 5 0
-8 5 0
-9 5 0
-5 6 7 8 9 0
-11 10 0
-16 10 0
-20 10 0
-10 20 0
-21 10 0
-12 11 0
-13 11 0
-14 11 0
-15 11 0
-11 12 13 14 15 0
-17 16 0
-18 16 0
-19 16 0
-16 17 18 19 0
-22 21 0
-23 21 0
-24 21 0
-21 22 23 24 0
3 -4 0
-16 -21 -9 0
